N = 7;
H = 6;
T = 2;

avail = array3d(1..N, 1..H, 1..T, [6, 8, 6, 4, 7, 5, 9, 9, 8, 8, 8, 2, 3, 5, 9, 2, 0, 1, 8, 6, 6, 9, 7, 0, 3, 5, 3, 8, 2, 5, 3, 0, 4, 10, 3, 10, 1, 3, 5, 2, 7, 9, 10, 6, 6, 6, 4, 7, 1, 9, 2, 10, 10, 0, 10, 7, 2, 7, 9, 3, 9, 6, 1, 0, 3, 10, 5, 3, 4, 9, 4, 10, 1, 8, 1, 2, 3, 9, 4, 8, 10, 1, 1, 2]);

r = array2d(1..H, 1..T, [3, 2, 0, 1, 3, 2, 3, 2, 1, 2, 2, 2]);
